certificates/rado_a15_c139_N45.drat
-41 -45 0
8 9 -45 0
9 -45 0
d 8 9 -45 0
-7 -45 0
d -7 -11 -45 0
-45 0
-7 -9 0
-8 -9 0
d -8 -4 -9 0
-9 0
5 0
13 0
41 0
-7 0
11 0
43 0
3 0
-31 0
-37 0
-39 0
-15 0
-17 0
-29 0
35 0
27 0
33 0
19 0
21 0
25 0
-8 0
-1 0
-10 0
4 0
12 0
28 0
26 0
42 0
0
